\ Model Transportation Problem with Renewable Energy Integration
\ LP format - for model browsing. Use MPS format to capture full model detail.
Minimize
  49.59699075785411 x[0,0] + 87.39925376485493 x[0,1]
   + 57.8323577430069 x[0,2] + 47.47029754812051 x[0,3]
   + 44.60641101546501 x[0,4] + 19.25200336861809 x[0,5]
   + 6.086295001174205 x[1,0] + 94.16529608004222 x[1,1]
   + 48.29518953930308 x[1,2] + 82.38944888464361 x[1,3]
   + 40.67003678294203 x[1,4] + 8.334134855308339 x[1,5]
   + 63.31512498824783 x[2,0] + 6.307298354960781 x[2,1]
   + 15.77056086289186 x[2,2] + 56.72112011137186 x[2,3]
   + 31.07971567238054 x[2,4] + 99.39789414831179 x[2,5]
   + 12.7267046589347 x[3,0] + 76.67990108729323 x[3,1]
   + 61.02544747305331 x[3,2] + 79.28334215449853 x[3,3]
   + 23.34302656943843 x[3,4] + 52.73468097789156 x[3,5]
   + 383.0401874680452 unmet_demand[0] + 476.4155901464201 unmet_demand[1]
   + 143.5045576205981 unmet_demand[2] + 144.9613378874269 unmet_demand[3]
   + 347.1926617364165 unmet_demand[4] + 120.6756920213947 unmet_demand[5]
Subject To
 supply_0: x[0,0] + x[0,1] + x[0,2] + x[0,3] + x[0,4] + x[0,5]
   <= 3047.348471342993
 supply_1: x[1,0] + x[1,1] + x[1,2] + x[1,3] + x[1,4] + x[1,5]
   <= 2614.97389316863
 supply_2: x[2,0] + x[2,1] + x[2,2] + x[2,3] + x[2,4] + x[2,5]
   <= 1127.335305304574
 supply_3: x[3,0] + x[3,1] + x[3,2] + x[3,3] + x[3,4] + x[3,5]
   <= 5807.21580340897
 renewable_supply_0: y[0,0] + y[0,1] + y[0,2] + y[0,3] + y[0,4] + y[0,5]
   <= 2527.315091999394
 renewable_supply_1: y[1,0] + y[1,1] + y[1,2] + y[1,3] + y[1,4] + y[1,5]
   <= 2492.244518086977
 renewable_supply_2: y[2,0] + y[2,1] + y[2,2] + y[2,3] + y[2,4] + y[2,5]
   <= 4370.74999621781
 renewable_supply_3: y[3,0] + y[3,1] + y[3,2] + y[3,3] + y[3,4] + y[3,5]
   <= 4955.140672100591
 renewable_supply_4: y[4,0] + y[4,1] + y[4,2] + y[4,3] + y[4,4] + y[4,5]
   <= 1874.211099437122
 renewable_supply_5: y[5,0] + y[5,1] + y[5,2] + y[5,3] + y[5,4] + y[5,5]
   <= 3294.622944824669
 renewable_supply_6: y[6,0] + y[6,1] + y[6,2] + y[6,3] + y[6,4] + y[6,5]
   <= 3243.339105103087
 demand_0: x[0,0] + x[1,0] + x[2,0] + x[3,0] + y[0,0] + y[1,0] + y[2,0]
   + y[3,0] + y[4,0] + y[5,0] + y[6,0] + unmet_demand[0]
   >= 3468.801941049406
 demand_1: x[0,1] + x[1,1] + x[2,1] + x[3,1] + y[0,1] + y[1,1] + y[2,1]
   + y[3,1] + y[4,1] + y[5,1] + y[6,1] + unmet_demand[1]
   >= 9768.654379924641
 demand_2: x[0,2] + x[1,2] + x[2,2] + x[3,2] + y[0,2] + y[1,2] + y[2,2]
   + y[3,2] + y[4,2] + y[5,2] + y[6,2] + unmet_demand[2]
   >= 5980.230701187475
 demand_3: x[0,3] + x[1,3] + x[2,3] + x[3,3] + y[0,3] + y[1,3] + y[2,3]
   + y[3,3] + y[4,3] + y[5,3] + y[6,3] + unmet_demand[3]
   >= 7276.75653619175
 demand_4: x[0,4] + x[1,4] + x[2,4] + x[3,4] + y[0,4] + y[1,4] + y[2,4]
   + y[3,4] + y[4,4] + y[5,4] + y[6,4] + unmet_demand[4]
   >= 2136.51543662568
 demand_5: x[0,5] + x[1,5] + x[2,5] + x[3,5] + y[0,5] + y[1,5] + y[2,5]
   + y[3,5] + y[4,5] + y[5,5] + y[6,5] + unmet_demand[5]
   >= 8816.150775366496
Bounds
End
